27 27
7 6
8 1
1 2
4 6
9 2
1 4
7 5
6 3
7 5
6 2
1 6
9 6
6 9
2 9
7 8
4 6
8 6
8 7
2 2
4 2
8 4
8 9
7 8
1 2
7 1
9 5
3 3
16 13 61
11 18 68
9 15 86
20 20 72
16 19 64
18 18 79
11 11 86
15 9 77
11 10 87
13 16 50
18 19 52
20 18 70
13 18 82
19 14 77
15 9 92
17 12 66
20 17 76
14 17 70
12 9 91
9 16 86
18 15 64
15 20 56
16 16 68
9 12 59
17 16 70
16 14 74
17 15 99
